100
1000
163
163
163
161
159
158
158
157
156
156
156
155
154
154
153
153
153
153
153
152
149
144
139
135
135
135
131
127
126
125
124
123
121
121
120
120
119
118
118
117
116
115
114
112
112
111
111
110
109
108
107
107
106
106
105
105
105
103
102
100
98
97
96
95
95
93
92
88
87
86
85
82
82
82
81
80
79
79
79
76
75
73
70
68
68
68
65
64
64
63
62
62
61
61
60
59
58
58
58
57
